unsat
(:added-eqs                   2515
 :arith-eq-adapter            61
 :arith-bound-propagations-lp 357
 :arith-branch                1263
 :arith-conflicts             1237
 :arith-cube-calls            556
 :arith-diseq                 1369
 :arith-fixed-eqs             856
 :arith-gcd-calls             2252
 :arith-gcd-conflict          10
 :arith-gomory-cuts           1572
 :arith-hnf-calls             10
 :arith-lower                 23628
 :arith-make-feasible         10745
 :arith-max-columns           99
 :arith-max-rows              54
 :arith-nla-propagate-bounds  4
 :arith-offset-eqs            316
 :arith-patches               2242
 :arith-patches-success       3
 :arith-upper                 31482
 :binary-propagations         35764
 :conflicts                   1248
 :decisions                   5466
 :del-clause                  2769
 :final-checks                2253
 :max-memory                  52.99
 :memory                      17.68
 :minimized-lits              143
 :mk-bool-var                 3422
 :mk-clause                   2972
 :mk-clause-binary            2376
 :num-allocs                  341024676
 :num-checks                  1
 :propagations                49747
 :restarts                    11
 :rlimit-count                418395
 :time                        1.67
 :total-time                  1.63)
